\ This file was automatically generated by Zimpl
\ var w1 >= 0;
\ var w2 <= 0;
\ var w3 >= 0;
\ minimize Z :      28*w1 + 42*w2 + 0*w3;
\ subto r1:     2*w1 + 2*w2 + 1*w3 >= 6;
\ subto r2:     3*w1 + 5*w2 - 1*w3 >= 3;
\Problem name: pd
Minimize
 Z:  +28 w1 +42 w2
Subject to
 r1_1:
  + w3 +2 w2 +2 w1 >= 6
 r2_1:
  - w3 +5 w2 +3 w1 >= 3
Bounds
 0 <= w1 <= +inf
 w2 = 0
 0 <= w3 <= +inf
End
